10 100
9
1
10 3
9 4
9 3
5
6
4 7
9
4
9 4
10 4
8 9
8
8 1
9 4
7
2 3
10
1 6
9 2
7
9 1
10 3
10 5
6
2 10 5
8 1
1 5 7
10
8
7
3 5
2
2
10 3
10 3 5
9
2 7
10
6 7
8
5
8
2 7
1 7
1 9
4
2
4 5
8
5
8
1 3 5
4 5
6
8
2
9
4 5
8
4 7
10 4
9 6
5
3
9 4 6
7
8 1
4
1
7
2
1 7
8 2
4
1 2
7
1 4
9
7
1
4
6
2 6
9 10
8
2
6
3
4
9 7
5
8 9
1
7
5
8
5
8